Data path: /scratch/opt/lxu/CFLG/benchmarks/random_B
Instance: r_25_0.2_58.txt
Result path: /scratch/opt/lxu/CFLG/results/random_B
Solver: Gurobi
Time limit: 7200
Formulation: LEFP
Cover: Small
julia --project=. src/main.jl /scratch/opt/lxu/CFLG/benchmarks/random_B r_25_0.2_58.txt /scratch/opt/lxu/CFLG/results/random_B Gurobi 7200 LEFP Small
The latest version of Julia in the `release` channel is 1.11.6+0.x64.linux.gnu. You currently have `1.11.4+0.x64.linux.gnu` installed. Run:

  juliaup update

in your terminal shell to install Julia 1.11.6+0.x64.linux.gnu and update the `release` channel to that version.
/scratch/opt/lxu/CFLG/benchmarks/random_B Gurobi 7200.0 /scratch/opt/lxu/CFLG/results/random_B r_25_0.2_58.txt LEFP Small
/scratch/opt/lxu/CFLG/benchmarks/random_B/r_25_0.2_58.txt

 read graph
data loaded


after absorb:25 25

max_piece:6
problem_graph/original graph: node: 27/25 edge: 60/58 dlt: 0.17078107202604045 break_avg_len: 0.6603534785006896 break_max_len: 0.9946460943203358Set parameter TokenServer to value "solice01.zib.de"
Set parameter Threads to value 1
Set parameter OutputFlag to value 1
Gurobi Optimizer version 12.0.1 build v12.0.1rc0 (linux64 - "Debian GNU/Linux 12 (bookworm)")

CPU model: Intel(R) Xeon(R) Gold 5222 CPU @ 3.80GHz, instruction set [SSE2|AVX|AVX2|AVX512]
Thread count: 8 physical cores, 16 logical processors, using up to 1 threads

Non-default parameters:
Threads  1

Optimize a model with 87 rows, 180 columns and 300 nonzeros
Model fingerprint: 0x7f5e6c6b
Coefficient statistics:
  Matrix range     [1e+00, 1e+00]
  Objective range  [1e+00, 1e+00]
  Bounds range     [1e+00, 1e+00]
  RHS range        [1e+00, 1e+00]
Presolve removed 6 rows and 8 columns
Presolve time: 0.03s
Presolved: 81 rows, 172 columns, 286 nonzeros

Iteration    Objective       Primal Inf.    Dual Inf.      Time
       0    6.0000000e+01   3.900000e+01   0.000000e+00      0s
      86    2.6000000e+01   0.000000e+00   0.000000e+00      0s

Solved in 86 iterations and 0.04 seconds (0.00 work units)
Optimal objective  2.600000000e+01

User-callback calls 164, time in user-callback 0.00 sec
elapsed CPU time: 0.885457 seconds
Set parameter TokenServer to value "solice01.zib.de"
Set parameter Threads to value 1
Set parameter OutputFlag to value 1
Set parameter MIPGap to value 0.0001
Set parameter TimeLimit to value 7199.114543

 more cuts: false 0.17078107202604045 false
is_attach:falseformulation:LEFP56 4 2

 model loaded

Gurobi Optimizer version 12.0.1 build v12.0.1rc0 (linux64 - "Debian GNU/Linux 12 (bookworm)")

CPU model: Intel(R) Xeon(R) Gold 5222 CPU @ 3.80GHz, instruction set [SSE2|AVX|AVX2|AVX512]
Thread count: 8 physical cores, 16 logical processors, using up to 1 threads

Non-default parameters:
TimeLimit  7199.114543
Threads  1

Optimize a model with 898 rows, 522 columns and 1830 nonzeros
Model fingerprint: 0xccc6d29e
Variable types: 147 continuous, 375 integer (375 binary)
Coefficient statistics:
  Matrix range     [8e-04, 1e+00]
  Objective range  [1e+00, 1e+00]
  Bounds range     [1e-01, 1e+00]
  RHS range        [3e-04, 1e+00]
Presolve removed 542 rows and 180 columns
Presolve time: 0.00s
Presolved: 356 rows, 342 columns, 1183 nonzeros
Variable types: 142 continuous, 200 integer (200 binary)
Found heuristic solution: objective 112.0000000
Found heuristic solution: objective 110.0000000

Root relaxation: objective 8.402202e+01, 285 iterations, 0.00 seconds (0.00 work units)

    Nodes    |    Current Node    |     Objective Bounds      |     Work
 Expl Unexpl |  Obj  Depth IntInf | Incumbent    BestBd   Gap | It/Node Time

     0     0   84.02202    0   85  110.00000   84.02202  23.6%     -    0s
H    0     0                     106.0000000   84.02202  20.7%     -    0s
H    0     0                     105.0000000   84.02202  20.0%     -    0s
H    0     0                     104.0000000   84.02202  19.2%     -    0s
H    0     0                     103.0000000   84.02202  18.4%     -    0s
     0     0   86.39423    0   89  103.00000   86.39423  16.1%     -    0s
H    0     0                     102.0000000   86.54781  15.1%     -    0s
     0     0   86.55172    0   91  102.00000   86.55172  15.1%     -    0s
     0     0   86.57871    0   92  102.00000   86.57871  15.1%     -    0s
     0     0   86.58329    0   89  102.00000   86.58329  15.1%     -    0s
     0     0   89.70145    0   98  102.00000   89.70145  12.1%     -    0s
     0     0   89.82615    0  103  102.00000   89.82615  11.9%     -    0s
     0     0   89.83954    0  103  102.00000   89.83954  11.9%     -    0s
     0     0   89.83988    0  106  102.00000   89.83988  11.9%     -    0s
     0     0   91.25624    0  100  102.00000   91.25624  10.5%     -    0s
H    0     0                     101.0000000   91.29960  9.60%     -    0s
     0     0   91.45110    0  102  101.00000   91.45110  9.45%     -    0s
     0     0   91.49962    0   95  101.00000   91.49962  9.41%     -    0s
     0     0   91.49962    0   95  101.00000   91.49962  9.41%     -    0s
     0     0   91.70388    0  103  101.00000   91.70388  9.20%     -    0s
     0     0   91.80611    0  110  101.00000   91.80611  9.10%     -    0s
     0     0   91.80611    0  112  101.00000   91.80611  9.10%     -    0s
     0     0   91.80611    0  108  101.00000   91.80611  9.10%     -    0s
     0     0   91.85021    0  107  101.00000   91.85021  9.06%     -    0s
     0     0   92.07626    0  105  101.00000   92.07626  8.84%     -    0s
     0     0   92.10878    0  105  101.00000   92.10878  8.80%     -    0s
     0     0   92.11602    0  109  101.00000   92.11602  8.80%     -    0s
     0     0   92.11626    0  105  101.00000   92.11626  8.80%     -    0s
     0     0   92.23009    0  105  101.00000   92.23009  8.68%     -    0s
H    0     0                     100.0000000   92.25288  7.75%     -    0s
     0     0   92.25288    0  111  100.00000   92.25288  7.75%     -    0s
     0     0   92.28899    0  110  100.00000   92.28899  7.71%     -    0s
     0     0   92.29871    0  109  100.00000   92.29871  7.70%     -    0s
     0     0   92.29871    0  111  100.00000   92.29871  7.70%     -    0s
     0     0   92.40150    0  100  100.00000   92.40150  7.60%     -    0s
     0     2   92.40649    0   92  100.00000   92.40649  7.59%     -    0s
H   27    27                      99.0000000   92.46813  6.60%  23.6    0s
  3943  2181   95.20752   21   88   99.00000   94.67721  4.37%  30.1    5s
  9140  5297     cutoff   36        99.00000   94.99030  4.05%  29.4   10s
 10277  5972   98.00000   45  123   99.00000   95.03156  4.01%  28.8   15s
 10429  6074   98.00000   36  128   99.00000   95.03156  4.01%  28.4   20s
 12143  6700   97.00000   47   21   99.00000   95.42018  3.62%  34.4   25s
 15291  7457   96.33665   35   69   99.00000   95.66667  3.37%  36.6   30s
 18520  8189   98.00000   54   21   99.00000   95.77049  3.26%  38.1   35s
 21990  8883   96.62500   36   42   99.00000   95.86667  3.16%  38.8   40s
 25427  9470   96.21636   35   96   99.00000   95.94848  3.08%  39.5   45s
 28838 10139   96.64440   40   73   99.00000   96.00000  3.03%  39.8   50s
 31902 11690   96.07677   41   98   99.00000   96.00000  3.03%  40.3   55s
 35181 13320   96.54149   38   93   99.00000   96.02374  3.01%  40.5   60s
 38626 14949   97.09424   38   48   99.00000   96.05367  2.98%  40.5   65s
 42002 16672   96.25000   43   76   99.00000   96.08389  2.95%  40.4   70s
 45322 18317   96.36467   35   90   99.00000   96.10817  2.92%  40.4   75s
 48822 19938   97.00000   39   47   99.00000   96.13565  2.89%  40.4   80s
 52051 21425   96.55333   39   86   99.00000   96.15769  2.87%  40.4   85s
*52655 10766              53      98.0000000   96.16114  1.88%  40.3   85s
 54037 10982     cutoff   46        98.00000   96.17624  1.86%  40.9   90s
 56548 11397     cutoff   50        98.00000   96.20134  1.84%  41.6   95s
 59157 11811   96.66667   38   41   98.00000   96.23061  1.81%  42.2  100s
 61702 12174   97.00000   37   54   98.00000   96.25000  1.79%  42.7  105s
 64242 12527   97.00000   47   43   98.00000   96.27545  1.76%  43.2  110s
 66635 12842   96.54168   32   68   98.00000   96.29776  1.74%  43.8  115s
 69222 13119   96.93986   39   69   98.00000   96.32226  1.71%  44.3  120s
 71708 13348     cutoff   42        98.00000   96.33333  1.70%  44.8  125s
 74193 13611   97.00000   49   29   98.00000   96.35149  1.68%  45.3  130s
 76730 13775   97.00000   35   73   98.00000   96.37137  1.66%  45.7  135s
 79012 13927   97.00000   39   42   98.00000   96.38884  1.64%  46.1  140s
 81507 14125   96.97095   38   83   98.00000   96.40384  1.63%  46.4  145s
 83826 14177     cutoff   41        98.00000   96.42494  1.61%  46.8  150s
 86133 14258     cutoff   54        98.00000   96.44169  1.59%  47.1  155s
 88460 14259   96.76266   37   76   98.00000   96.46364  1.57%  47.5  160s
 90819 14228   96.73454   41   81   98.00000   96.48724  1.54%  47.7  165s
 93048 14196     cutoff   41        98.00000   96.50000  1.53%  48.1  170s
 94727 14192   96.90626   43   85   98.00000   96.50000  1.53%  48.5  176s
 96225 14252   96.76729   45   53   98.00000   96.50000  1.53%  48.8  180s
 98342 14353     cutoff   36        98.00000   96.50000  1.53%  49.1  185s
 100652 14537   97.00000   42   58   98.00000   96.50523  1.53%  49.4  190s
 102835 14461   96.85890   41   82   98.00000   96.52171  1.51%  49.7  195s
 105151 14325   96.54885   41   50   98.00000   96.53846  1.49%  49.9  200s
 107315 14173   97.00000   46   31   98.00000   96.55556  1.47%  50.2  205s
 109593 13972   97.00000   35   35   98.00000   96.57167  1.46%  50.4  210s
 111768 13705   97.00000   39   64   98.00000   96.58952  1.44%  50.6  215s
 114027 13483   97.00000   45   51   98.00000   96.60634  1.42%  50.7  220s
 116249 13180   96.97563   37   82   98.00000   96.62658  1.40%  50.9  225s
 118519 12855     cutoff   46        98.00000   96.65022  1.38%  51.1  230s
 120662 12475   96.71429   44   49   98.00000   96.66667  1.36%  51.3  235s
 122900 12237   96.88889   35   74   98.00000   96.67901  1.35%  51.4  240s
 125092 11715     cutoff   42        98.00000   96.70192  1.32%  51.6  245s
 127440 11015   96.96211   45   62   98.00000   96.73438  1.29%  51.6  250s
 129437 10336     cutoff   46        98.00000   96.75559  1.27%  51.9  255s
 131720  9407     cutoff   43        98.00000   96.80000  1.22%  51.9  260s
 133893  8400   96.95438   44   87   98.00000   96.85441  1.17%  52.0  265s
 136629  6614     cutoff   56        98.00000   97.00000  1.02%  51.9  270s
 138168  5578     cutoff   40        98.00000   97.00000  1.02%  52.3  275s
 139656  4893     cutoff   44        98.00000   97.00000  1.02%  52.7  280s
 141182  4323     cutoff   42        98.00000   97.00000  1.02%  53.1  285s
 142583  3734   97.00000   45   53   98.00000   97.00000  1.02%  53.5  290s
 144270  3302   97.00000   45   64   98.00000   97.00000  1.02%  53.8  295s
 145959  2917     cutoff   44        98.00000   97.00000  1.02%  54.0  300s
 147607  2550   97.00000   42   59   98.00000   97.00000  1.02%  54.3  305s
 149218  2082     cutoff   39        98.00000   97.00000  1.02%  54.7  310s
 150888  1692     cutoff   41        98.00000   97.00000  1.02%  54.9  315s
 152627  1313     cutoff   49        98.00000   97.00000  1.02%  55.2  320s
 154295  1000   97.00000   39   64   98.00000   97.00000  1.02%  55.4  325s
 156093   767   97.00000   37   71   98.00000   97.00000  1.02%  55.6  330s
 157887   536   97.00000   49   48   98.00000   97.00000  1.02%  55.8  335s
 159350   307     cutoff   43        98.00000   97.00000  1.02%  56.0  340s
 161073   103     cutoff   42        98.00000   97.00000  1.02%  56.2  345s

Cutting planes:
  Gomory: 16
  Cover: 316
  Implied bound: 57
  Clique: 2
  MIR: 336
  Mixing: 14
  StrongCG: 6
  Flow cover: 1072
  GUB cover: 24
  Inf proof: 9
  Zero half: 50
  RLT: 65
  Relax-and-lift: 18
  BQP: 32

Explored 161643 nodes (9111411 simplex iterations) in 346.82 seconds (342.56 work units)
Thread count was 1 (of 16 available processors)

Solution count 10: 98 98 99 ... 106

Optimal solution found (tolerance 1.00e-04)
Best objective 9.800000000000e+01, best bound 9.800000000000e+01, gap 0.0000%

User-callback calls 434645, time in user-callback 0.32 sec

 sepatime0 0 0
98.0
Stat(MathOptInterface.OPTIMAL, 98.0, 98.0, 0.0, 0.0, 0.885457, 346.8164610862732, 161643, Main.CFLG.LEFP, "", #undef)
